NAME : PROBLEM_DIR1.txt.51.tour
COMMENT : Length = 51
COMMENT : Found by LKH [Keld Helsgaun] Tue Sep  4 14:45:13 2018
TYPE : TOUR
DIMENSION : 19
TOUR_SECTION
1
2
10
5
4
6
12
7
15
13
18
19
17
16
11
14
3
8
9
-1
EOF
